<number of tasks>
50

<cycle time>
1000

<order strength>
0.204


<task times>
1 75
2 69
3 67
4 87
5 326
6 121
7 168
8 74
9 130
10 102
11 59
12 151
13 210
14 126
15 194
16 239
17 228
18 107
19 321
20 170
21 141
22 195
23 42
24 226
25 136
26 59
27 132
28 128
29 216
30 102
31 271
32 32
33 77
34 68
35 127
36 198
37 172
38 209
39 137
40 174
41 166
42 84
43 133
44 358
45 200
46 113
47 71
48 186
49 95
50 239

<precedence relations>
1,7
2,10
3,8
3,9
3,11
3,12
6,13
7,15
8,16
9,17
10,14
11,18
13,19
13,20
14,21
15,22
16,23
17,24
18,25
19,26
20,23
20,27
21,28
22,35
23,29
23,31
25,32
26,29
27,30
28,33
29,34
29,37
30,35
31,43
32,36
32,42
33,39
34,40
35,38
35,44
36,41
36,43
37,42
38,45
39,46
40,48
41,47
42,50
43,49

<end>
